76 4 49 5 72 59 24 79 54 26 22 85 45 16 81 40 9 28 63 89 87 17 15 55 30 84 69 10 38 12 74 37 58 56 80 71 64 20 6 18 21 25 47 91 41 97 1 78 3 11 46 7 94 75 66 65 29 92 23 52 44 73 93 14 39 67 68 43 35 48 53 98 61 99 88 95 96 70 51 90 36 8 0 31 83 13 77 57 2 33 86 82 60 32 62 19 42 50 27 34 

